n = 22;
lu = [|314, 463
      |-188, 429
      |-399, 365
      |-467, 122
      |-170, -51
      |-96, 58
      |-351, -118
      |-288, 259
      |-211, -29
      |-470, -258
      |-19, 151
      |-459, 439
      |-397, -376
      |26, 243
      |-464, -53
      |40, 158
      |-43, 267
      |-117, 305
      |-426, -274
      |-448, 317
      |-107, 119
      |-308, 189|];
